u120_03
150 120 49 52
29 0
26 0
83 0
82 1
92 2
95 3
87 4
63 1
57 2
100 5
63 6
65 6
81 7
46 3
42 4
95 8
90 9
80 10
53 7
27 5
84 11
40 8
22 5
97 12
20 4
73 13
63 10
95 14
46 9
42 11
47 12
40 13
26 13
88 15
49 14
24 15
92 16
87 17
68 18
95 19
34 15
82 20
84 21
43 16
54 17
73 18
66 20
32 19
62 21
48 22
99 22
90 23
86 24
28 23
25 23
25 24
89 25
67 26
96 27
35 24
33 25
70 26
40 27
59 28
32 28
94 29
34 28
86 30
35 29
45 30
25 25
76 31
80 32
42 31
91 33
44 32
91 34
97 35
60 36
29 31
45 33
37 34
61 36
54 37
78 37
56 38
74 38
74 39
45 35
21 6
96 40
37 39
75 41
100 42
58 41
84 43
85 44
56 43
54 44
71 45
52 40
79 46
43 42
35 39
27 36
70 45
31 46
47 47
35 46
26 47
30 47
97 48
90 49
80 50
58 49
60 50
73 51
46 47
71 51
39 48